NAME: ACTUAL_TOURS/amz2717
TYPE: TOUR
COMMENT: RouteID_79063cfe-4556-4940-aba4-6b661a3c5e83
DIMENSION: 119
TOUR_SECTION
14
32
36
69
83
104
30
7
12
119
51
115
84
47
79
91
92
81
106
100
22
18
113
76
109
62
82
3
96
67
58
44
15
43
41
86
49
60
28
66
70
38
116
48
80
17
78
11
74
53
95
24
4
54
110
56
37
46
20
21
13
27
50
59
6
75
61
98
108
2
90
99
114
10
93
118
52
105
34
101
42
85
102
103
68
107
71
94
31
111
64
87
63
23
33
8
5
29
73
77
57
112
117
19
40
39
9
25
45
55
72
89
88
1
35
16
26
65
97
-1
EOF
